Route #1: 23 29 10 17 1 36 49 20
Route #2: 16 32 14 2 27 6
Route #3: 44 53 3 22 13
Route #4: 35 15 26 45 21 33 9 38 11
Route #5: 19 8 31 40 48 37 12
Route #6: 43 4 28 7 39 50 5 18
Route #7: 30 25 47 51 24 42 46 41 34 52
cost 1172
